%%% 16 guests version 1
N=16;
gender = [1,2,1,1,1,1,2,1,1,1,2,2,2,2,2,2];
hobbies = [ {2,1,3},
            {2,1,3},
            {3,2},
            {3,2,1},
            {2,1,3},
            {2,3,1},
            {1,2,3},
            {3,1},
            {2,3,1},
            {3,2,1},
            {1,3,2},
            {3,1,2},
            {2,3},
            {1,2},
            {2,3,1},
            {2,3}] ;

pR = 3;
furious = [|16,10|13,6|12,5|];